9
0 76 152 94 276 490 447 161 10
76 0 86 101 875 69 618 11 115
152 86 0 560 205 625 806 248 28
94 101 560 0 547 90 356 49 442
276 875 205 547 0 176 143 823 82
490 69 625 90 176 0 59 215 225
447 618 806 356 143 59 0 236 289
161 11 248 49 823 215 236 0 213
10 115 28 442 82 225 289 213 0